
g.10.1.graphml.cnf
s UNSATISFIABLE
-
g.10.10.graphml.cnf
s UNSATISFIABLE
-
g.10.2.graphml.cnf
s UNSATISFIABLE
-
g.10.3.graphml.cnf
s UNSATISFIABLE
-
g.10.4.graphml.cnf
s UNSATISFIABLE
-
g.10.5.graphml.cnf
s UNSATISFIABLE
-
g.10.6.graphml.cnf
s UNSATISFIABLE
-
g.10.7.graphml.cnf
s UNSATISFIABLE
-
g.10.8.graphml.cnf
s UNSATISFIABLE
-
g.10.9.graphml.cnf
s UNSATISFIABLE
-
g.100.1.graphml.cnf
s UNSATISFIABLE
-
g.100.10.graphml.cnf
s UNSATISFIABLE
-
g.100.2.graphml.cnf
s UNSATISFIABLE
-
g.100.3.graphml.cnf
s UNSATISFIABLE
-
g.100.5.graphml.cnf
s UNSATISFIABLE
-
g.100.6.graphml.cnf
s UNSATISFIABLE
-
g.100.7.graphml.cnf
s UNSATISFIABLE
-
g.100.8.graphml.cnf
s UNSATISFIABLE
-
g.100.9.graphml.cnf
s UNSATISFIABLE
-
g.11.1.graphml.cnf
s UNSATISFIABLE
-
g.11.10.graphml.cnf
s UNSATISFIABLE
-
g.11.2.graphml.cnf
s UNSATISFIABLE
-
g.11.3.graphml.cnf
s UNSATISFIABLE
-
g.11.4.graphml.cnf
s UNSATISFIABLE
-
g.11.5.graphml.cnf
s UNSATISFIABLE
-
g.11.6.graphml.cnf
s UNSATISFIABLE
-
g.11.7.graphml.cnf
s UNSATISFIABLE
-
g.11.8.graphml.cnf
s UNSATISFIABLE
-
g.11.9.graphml.cnf
s UNSATISFIABLE
-
g.12.1.graphml.cnf
s UNSATISFIABLE
-
g.12.10.graphml.cnf
s UNSATISFIABLE
-
g.12.2.graphml.cnf
s UNSATISFIABLE
-
g.12.3.graphml.cnf
s UNSATISFIABLE
-
g.12.4.graphml.cnf
s UNSATISFIABLE
-
g.12.5.graphml.cnf
s UNSATISFIABLE
-
g.12.6.graphml.cnf
s UNSATISFIABLE
-
g.12.7.graphml.cnf
s UNSATISFIABLE
-
g.12.8.graphml.cnf
s UNSATISFIABLE
-
g.12.9.graphml.cnf
s UNSATISFIABLE
-
g.13.1.graphml.cnf
s UNSATISFIABLE
-
g.13.10.graphml.cnf
s UNSATISFIABLE
-
g.13.2.graphml.cnf
s UNSATISFIABLE
-
g.13.3.graphml.cnf
s UNSATISFIABLE
-
g.13.4.graphml.cnf
s UNSATISFIABLE
-
g.13.5.graphml.cnf
s UNSATISFIABLE
-
g.13.6.graphml.cnf
s UNSATISFIABLE
-
g.13.7.graphml.cnf
s UNSATISFIABLE
-
g.13.8.graphml.cnf
s UNSATISFIABLE
-
g.13.9.graphml.cnf
s UNSATISFIABLE
-
g.14.1.graphml.cnf
s UNSATISFIABLE
-
g.14.10.graphml.cnf
s UNSATISFIABLE
-
g.14.2.graphml.cnf
s UNSATISFIABLE
-
g.14.3.graphml.cnf
s UNSATISFIABLE
-
g.14.4.graphml.cnf
s UNSATISFIABLE
-
g.14.5.graphml.cnf
s UNSATISFIABLE
-
g.14.6.graphml.cnf
s UNSATISFIABLE
-
g.14.7.graphml.cnf
s UNSATISFIABLE
-
g.14.8.graphml.cnf
s UNSATISFIABLE
-
g.14.9.graphml.cnf
s UNSATISFIABLE
-
g.15.1.graphml.cnf
s UNSATISFIABLE
-
g.15.10.graphml.cnf
s UNSATISFIABLE
-
g.15.2.graphml.cnf
s UNSATISFIABLE
-
g.15.3.graphml.cnf
s UNSATISFIABLE
-
g.15.4.graphml.cnf
s UNSATISFIABLE
-
g.15.5.graphml.cnf
s UNSATISFIABLE
-
g.15.6.graphml.cnf
s UNSATISFIABLE
-
g.15.7.graphml.cnf
s UNSATISFIABLE
-
g.15.8.graphml.cnf
s UNSATISFIABLE
-
g.15.9.graphml.cnf
s UNSATISFIABLE
-
g.16.1.graphml.cnf
s UNSATISFIABLE
-
g.16.10.graphml.cnf
s UNSATISFIABLE
-
g.16.2.graphml.cnf
s UNSATISFIABLE
-
g.16.3.graphml.cnf
s UNSATISFIABLE
-
g.16.4.graphml.cnf
s UNSATISFIABLE
-
g.16.5.graphml.cnf
s UNSATISFIABLE
-
g.16.6.graphml.cnf
s UNSATISFIABLE
-
g.16.7.graphml.cnf
s UNSATISFIABLE
-
g.16.8.graphml.cnf
s UNSATISFIABLE
-
g.16.9.graphml.cnf
s UNSATISFIABLE
-
g.17.1.graphml.cnf
s UNSATISFIABLE
-
g.17.10.graphml.cnf
s UNSATISFIABLE
-
g.17.2.graphml.cnf
s UNSATISFIABLE
-
g.17.3.graphml.cnf
s UNSATISFIABLE
-
g.17.4.graphml.cnf
s UNSATISFIABLE
-
g.17.5.graphml.cnf
s UNSATISFIABLE
-
g.17.6.graphml.cnf
s UNSATISFIABLE
-
g.17.7.graphml.cnf
s UNSATISFIABLE
-
g.17.8.graphml.cnf
s UNSATISFIABLE
-
g.17.9.graphml.cnf
s UNSATISFIABLE
-
g.18.1.graphml.cnf
s UNSATISFIABLE
-
g.18.10.graphml.cnf
s UNSATISFIABLE
-
g.18.2.graphml.cnf
s UNSATISFIABLE
-
g.18.3.graphml.cnf
s UNSATISFIABLE
-
g.18.4.graphml.cnf
s UNSATISFIABLE
-
g.18.5.graphml.cnf
s UNSATISFIABLE
-
g.18.6.graphml.cnf
s UNSATISFIABLE
-
g.18.7.graphml.cnf
s UNSATISFIABLE
-
g.18.8.graphml.cnf
s UNSATISFIABLE
-
g.18.9.graphml.cnf
s UNSATISFIABLE
-
g.19.1.graphml.cnf
s UNSATISFIABLE
-
g.19.10.graphml.cnf
s UNSATISFIABLE
-
g.19.2.graphml.cnf
s UNSATISFIABLE
-
g.19.3.graphml.cnf
s UNSATISFIABLE
-
g.19.4.graphml.cnf
s UNSATISFIABLE
-
g.19.5.graphml.cnf
s UNSATISFIABLE
-
g.19.6.graphml.cnf
s UNSATISFIABLE
-
g.19.7.graphml.cnf
s UNSATISFIABLE
-
g.19.8.graphml.cnf
s UNSATISFIABLE
-
g.19.9.graphml.cnf
s UNSATISFIABLE
-
g.20.1.graphml.cnf
s UNSATISFIABLE
-
g.20.10.graphml.cnf
s UNSATISFIABLE
-
g.20.2.graphml.cnf
s UNSATISFIABLE
-
g.20.3.graphml.cnf
s UNSATISFIABLE
-
g.20.4.graphml.cnf
s UNSATISFIABLE
-
g.20.5.graphml.cnf
s UNSATISFIABLE
-
g.20.6.graphml.cnf
s UNSATISFIABLE
-
g.20.7.graphml.cnf
s UNSATISFIABLE
-
g.20.8.graphml.cnf
s UNSATISFIABLE
-
g.20.9.graphml.cnf
s UNSATISFIABLE
-
g.21.1.graphml.cnf
s UNSATISFIABLE
-
g.21.10.graphml.cnf
s UNSATISFIABLE
-
g.21.2.graphml.cnf
s UNSATISFIABLE
-
g.21.3.graphml.cnf
s UNSATISFIABLE
-
g.21.4.graphml.cnf
s UNSATISFIABLE
-
g.21.5.graphml.cnf
s UNSATISFIABLE
-
g.21.6.graphml.cnf
s UNSATISFIABLE
-
g.21.7.graphml.cnf
s UNSATISFIABLE
-
g.21.8.graphml.cnf
s UNSATISFIABLE
-
g.21.9.graphml.cnf
s UNSATISFIABLE
-
g.22.1.graphml.cnf
s UNSATISFIABLE
-
g.22.10.graphml.cnf
s UNSATISFIABLE
-
g.22.2.graphml.cnf
s UNSATISFIABLE
-
g.22.3.graphml.cnf
s UNSATISFIABLE
-
g.22.4.graphml.cnf
s UNSATISFIABLE
-
g.22.5.graphml.cnf
s UNSATISFIABLE
-
g.22.6.graphml.cnf
s UNSATISFIABLE
-
g.22.7.graphml.cnf
s UNSATISFIABLE
-
g.22.8.graphml.cnf
s UNSATISFIABLE
-
g.22.9.graphml.cnf
s UNSATISFIABLE
-
g.23.1.graphml.cnf
s UNSATISFIABLE
-
g.23.10.graphml.cnf
s UNSATISFIABLE
-
g.23.2.graphml.cnf
s UNSATISFIABLE
-
g.23.3.graphml.cnf
s UNSATISFIABLE
-
g.23.4.graphml.cnf
s UNSATISFIABLE
-
g.23.5.graphml.cnf
s UNSATISFIABLE
-
g.23.6.graphml.cnf
s UNSATISFIABLE
-
g.23.7.graphml.cnf
s UNSATISFIABLE
-
g.23.8.graphml.cnf
s UNSATISFIABLE
-
g.23.9.graphml.cnf
s UNSATISFIABLE
-
g.24.1.graphml.cnf
s UNSATISFIABLE
-
g.24.10.graphml.cnf
s UNSATISFIABLE
-
g.24.2.graphml.cnf
s UNSATISFIABLE
-
g.24.3.graphml.cnf
s UNSATISFIABLE
-
g.24.4.graphml.cnf
s UNSATISFIABLE
-
g.24.5.graphml.cnf
s UNSATISFIABLE
-
g.24.6.graphml.cnf
s UNSATISFIABLE
-
g.24.7.graphml.cnf
s UNSATISFIABLE
-
g.24.8.graphml.cnf
s UNSATISFIABLE
-
g.24.9.graphml.cnf
s UNSATISFIABLE
-
g.25.1.graphml.cnf
s UNSATISFIABLE
-
g.25.10.graphml.cnf
s UNSATISFIABLE
-
g.25.2.graphml.cnf
s UNSATISFIABLE
-
g.25.3.graphml.cnf
s UNSATISFIABLE
-
g.25.4.graphml.cnf
s UNSATISFIABLE
-
g.25.5.graphml.cnf
s UNSATISFIABLE
-
g.25.6.graphml.cnf
s UNSATISFIABLE
-
g.25.7.graphml.cnf
s UNSATISFIABLE
-
g.25.8.graphml.cnf
s UNSATISFIABLE
-
g.25.9.graphml.cnf
s UNSATISFIABLE
-
g.26.1.graphml.cnf
s UNSATISFIABLE
-
g.26.10.graphml.cnf
s UNSATISFIABLE
-
g.26.2.graphml.cnf
s UNSATISFIABLE
-
g.26.3.graphml.cnf
s UNSATISFIABLE
-
g.26.4.graphml.cnf
s UNSATISFIABLE
-
g.26.5.graphml.cnf
s UNSATISFIABLE
-
g.26.6.graphml.cnf
s UNSATISFIABLE
-
g.26.7.graphml.cnf
s UNSATISFIABLE
-
g.26.8.graphml.cnf
s UNSATISFIABLE
-
g.26.9.graphml.cnf
s UNSATISFIABLE
-
g.27.1.graphml.cnf
s UNSATISFIABLE
-
g.27.10.graphml.cnf
s UNSATISFIABLE
-
g.27.2.graphml.cnf
s UNSATISFIABLE
-
g.27.3.graphml.cnf
s UNSATISFIABLE
-
g.27.4.graphml.cnf
s UNSATISFIABLE
-
g.27.5.graphml.cnf
s UNSATISFIABLE
-
g.27.6.graphml.cnf
s UNSATISFIABLE
-
g.27.7.graphml.cnf
s UNSATISFIABLE
-
g.27.8.graphml.cnf
s UNSATISFIABLE
-
g.27.9.graphml.cnf
s UNSATISFIABLE
-
g.28.1.graphml.cnf
s UNSATISFIABLE
-
g.28.10.graphml.cnf
s UNSATISFIABLE
-
g.28.2.graphml.cnf
s UNSATISFIABLE
-
g.28.3.graphml.cnf
s UNSATISFIABLE
-
g.28.4.graphml.cnf
s UNSATISFIABLE
-
g.28.5.graphml.cnf
s UNSATISFIABLE
-
g.28.6.graphml.cnf
s UNSATISFIABLE
-
g.28.7.graphml.cnf
s UNSATISFIABLE
-
g.28.8.graphml.cnf
s UNSATISFIABLE
-
g.28.9.graphml.cnf
s UNSATISFIABLE
-
g.29.1.graphml.cnf
s UNSATISFIABLE
-
g.29.10.graphml.cnf
s UNSATISFIABLE
-
g.29.2.graphml.cnf
s UNSATISFIABLE
-
g.29.3.graphml.cnf
s UNSATISFIABLE
-
g.29.4.graphml.cnf
s UNSATISFIABLE
-
g.29.5.graphml.cnf
s UNSATISFIABLE
-
g.29.6.graphml.cnf
s UNSATISFIABLE
-
g.29.7.graphml.cnf
s UNSATISFIABLE
-
g.29.8.graphml.cnf
s UNSATISFIABLE
-
g.29.9.graphml.cnf
s UNSATISFIABLE
-
g.30.1.graphml.cnf
s UNSATISFIABLE
-
g.30.10.graphml.cnf
s UNSATISFIABLE
-
g.30.2.graphml.cnf
s UNSATISFIABLE
-
g.30.3.graphml.cnf
s UNSATISFIABLE
-
g.30.4.graphml.cnf
s UNSATISFIABLE
-
g.30.5.graphml.cnf
s UNSATISFIABLE
-
g.30.6.graphml.cnf
s UNSATISFIABLE
-
g.30.7.graphml.cnf
s UNSATISFIABLE
-
g.30.8.graphml.cnf
s UNSATISFIABLE
-
g.30.9.graphml.cnf
s UNSATISFIABLE
-
g.31.1.graphml.cnf
s UNSATISFIABLE
-
g.31.10.graphml.cnf
s UNSATISFIABLE
-
g.31.2.graphml.cnf
s UNSATISFIABLE
-
g.31.3.graphml.cnf
s UNSATISFIABLE
-
g.31.4.graphml.cnf
s UNSATISFIABLE
-
g.31.5.graphml.cnf
s UNSATISFIABLE
-
g.31.6.graphml.cnf
s UNSATISFIABLE
-
g.31.7.graphml.cnf
s UNSATISFIABLE
-
g.31.8.graphml.cnf
s UNSATISFIABLE
-
g.31.9.graphml.cnf
s UNSATISFIABLE
-
g.32.1.graphml.cnf
s UNSATISFIABLE
-
g.32.10.graphml.cnf
s UNSATISFIABLE
-
g.32.2.graphml.cnf
s UNSATISFIABLE
-
g.32.3.graphml.cnf
s UNSATISFIABLE
-
g.32.4.graphml.cnf
s UNSATISFIABLE
-
g.32.5.graphml.cnf
s UNSATISFIABLE
-
g.32.6.graphml.cnf
s UNSATISFIABLE
-
g.32.7.graphml.cnf
s UNSATISFIABLE
-
g.32.8.graphml.cnf
s UNSATISFIABLE
-
g.32.9.graphml.cnf
s UNSATISFIABLE
-
g.33.1.graphml.cnf
s UNSATISFIABLE
-
g.33.10.graphml.cnf
s UNSATISFIABLE
-
g.33.2.graphml.cnf
s UNSATISFIABLE
-
g.33.3.graphml.cnf
s UNSATISFIABLE
-
g.33.4.graphml.cnf
s UNSATISFIABLE
-
g.33.5.graphml.cnf
s UNSATISFIABLE
-
g.33.6.graphml.cnf
s UNSATISFIABLE
-
g.33.7.graphml.cnf
s UNSATISFIABLE
-
g.33.8.graphml.cnf
s UNSATISFIABLE
-
g.33.9.graphml.cnf
s UNSATISFIABLE
-
g.34.1.graphml.cnf
s UNSATISFIABLE
-
g.34.10.graphml.cnf
s UNSATISFIABLE
-
g.34.2.graphml.cnf
s UNSATISFIABLE
-
g.34.3.graphml.cnf
s UNSATISFIABLE
-
g.34.4.graphml.cnf
s UNSATISFIABLE
-
g.34.5.graphml.cnf
s UNSATISFIABLE
-
g.34.6.graphml.cnf
s UNSATISFIABLE
-
g.34.7.graphml.cnf
s UNSATISFIABLE
-
g.34.8.graphml.cnf
s UNSATISFIABLE
-
g.34.9.graphml.cnf
s UNSATISFIABLE
-
g.35.1.graphml.cnf
s UNSATISFIABLE
-
g.35.10.graphml.cnf
s UNSATISFIABLE
-
g.35.2.graphml.cnf
s UNSATISFIABLE
-
g.35.3.graphml.cnf
s UNSATISFIABLE
-
g.35.4.graphml.cnf
s UNSATISFIABLE
-
g.35.5.graphml.cnf
s UNSATISFIABLE
-
g.35.6.graphml.cnf
s UNSATISFIABLE
-
g.35.7.graphml.cnf
s UNSATISFIABLE
-
g.35.8.graphml.cnf
s UNSATISFIABLE
-
g.35.9.graphml.cnf
s UNSATISFIABLE
-
g.36.1.graphml.cnf
s UNSATISFIABLE
-
g.36.10.graphml.cnf
s UNSATISFIABLE
-
g.36.2.graphml.cnf
s UNSATISFIABLE
-
g.36.3.graphml.cnf
s UNSATISFIABLE
-
g.36.4.graphml.cnf
s UNSATISFIABLE
-
g.36.5.graphml.cnf
s UNSATISFIABLE
-
g.36.6.graphml.cnf
s UNSATISFIABLE
-
g.36.7.graphml.cnf
s UNSATISFIABLE
-
g.36.8.graphml.cnf
s UNSATISFIABLE
-
g.36.9.graphml.cnf
s UNSATISFIABLE
-
g.37.1.graphml.cnf
s UNSATISFIABLE
-
g.37.10.graphml.cnf
s UNSATISFIABLE
-
g.37.2.graphml.cnf
s UNSATISFIABLE
-
g.37.3.graphml.cnf
s UNSATISFIABLE
-
g.37.4.graphml.cnf
s UNSATISFIABLE
-
g.37.5.graphml.cnf
s UNSATISFIABLE
-
g.37.6.graphml.cnf
s UNSATISFIABLE
-
g.37.7.graphml.cnf
s UNSATISFIABLE
-
g.37.8.graphml.cnf
s UNSATISFIABLE
-
g.37.9.graphml.cnf
s UNSATISFIABLE
-
g.38.1.graphml.cnf
s UNSATISFIABLE
-
g.38.10.graphml.cnf
s UNSATISFIABLE
-
g.38.2.graphml.cnf
s UNSATISFIABLE
-
g.38.3.graphml.cnf
s UNSATISFIABLE
-
g.38.4.graphml.cnf
s UNSATISFIABLE
-
g.38.5.graphml.cnf
s UNSATISFIABLE
-
g.38.6.graphml.cnf
s UNSATISFIABLE
-
g.38.7.graphml.cnf
s UNSATISFIABLE
-
g.38.8.graphml.cnf
s UNSATISFIABLE
-
g.38.9.graphml.cnf
s UNSATISFIABLE
-
g.39.1.graphml.cnf
s UNSATISFIABLE
-
g.39.10.graphml.cnf
s UNSATISFIABLE
-
g.39.2.graphml.cnf
s UNSATISFIABLE
-
g.39.3.graphml.cnf
s UNSATISFIABLE
-
g.39.4.graphml.cnf
s UNSATISFIABLE
-
g.39.5.graphml.cnf
s UNSATISFIABLE
-
g.39.6.graphml.cnf
s UNSATISFIABLE
-
g.39.7.graphml.cnf
s UNSATISFIABLE
-
g.39.8.graphml.cnf
s UNSATISFIABLE
-
g.39.9.graphml.cnf
s UNSATISFIABLE
-
g.40.1.graphml.cnf
s UNSATISFIABLE
-
g.40.10.graphml.cnf
s UNSATISFIABLE
-
g.40.2.graphml.cnf
s UNSATISFIABLE
-
g.40.3.graphml.cnf
s UNSATISFIABLE
-
g.40.4.graphml.cnf
s UNSATISFIABLE
-
g.40.5.graphml.cnf
s UNSATISFIABLE
-
g.40.6.graphml.cnf
s UNSATISFIABLE
-
g.40.7.graphml.cnf
s UNSATISFIABLE
-
g.40.8.graphml.cnf
s UNSATISFIABLE
-
g.40.9.graphml.cnf
s UNSATISFIABLE
-
g.41.1.graphml.cnf
s UNSATISFIABLE
-
g.41.10.graphml.cnf
s UNSATISFIABLE
-
g.41.2.graphml.cnf
s UNSATISFIABLE
-
g.41.3.graphml.cnf
s UNSATISFIABLE
-
g.41.4.graphml.cnf
s UNSATISFIABLE
-
g.41.5.graphml.cnf
s UNSATISFIABLE
-
g.41.6.graphml.cnf
s UNSATISFIABLE
-
g.41.7.graphml.cnf
s UNSATISFIABLE
-
g.41.8.graphml.cnf
s UNSATISFIABLE
-
g.41.9.graphml.cnf
s UNSATISFIABLE
-
g.42.1.graphml.cnf
s UNSATISFIABLE
-
g.42.10.graphml.cnf
s UNSATISFIABLE
-
g.42.2.graphml.cnf
s UNSATISFIABLE
-
g.42.3.graphml.cnf
s UNSATISFIABLE
-
g.42.4.graphml.cnf
s UNSATISFIABLE
-
g.42.5.graphml.cnf
s UNSATISFIABLE
-
g.42.6.graphml.cnf
s UNSATISFIABLE
-
g.42.7.graphml.cnf
s UNSATISFIABLE
-
g.42.8.graphml.cnf
s UNSATISFIABLE
-
g.42.9.graphml.cnf
s UNSATISFIABLE
-
g.43.1.graphml.cnf
s UNSATISFIABLE
-
g.43.10.graphml.cnf
s UNSATISFIABLE
-
g.43.2.graphml.cnf
s UNSATISFIABLE
-
g.43.3.graphml.cnf
s UNSATISFIABLE
-
g.43.4.graphml.cnf
s UNSATISFIABLE
-
g.43.5.graphml.cnf
s UNSATISFIABLE
-
g.43.6.graphml.cnf
s UNSATISFIABLE
-
g.43.7.graphml.cnf
s UNSATISFIABLE
-
g.43.8.graphml.cnf
s UNSATISFIABLE
-
g.43.9.graphml.cnf
s UNSATISFIABLE
-
g.44.1.graphml.cnf
s UNSATISFIABLE
-
g.44.10.graphml.cnf
s UNSATISFIABLE
-
g.44.2.graphml.cnf
s UNSATISFIABLE
-
g.44.3.graphml.cnf
s UNSATISFIABLE
-
g.44.4.graphml.cnf
s UNSATISFIABLE
-
g.44.5.graphml.cnf
s UNSATISFIABLE
-
g.44.6.graphml.cnf
s UNSATISFIABLE
-
g.44.7.graphml.cnf
s UNSATISFIABLE
-
g.44.8.graphml.cnf
s UNSATISFIABLE
-
g.44.9.graphml.cnf
s UNSATISFIABLE
-
g.45.1.graphml.cnf
s UNSATISFIABLE
-
g.45.10.graphml.cnf
s UNSATISFIABLE
-
g.45.2.graphml.cnf
s UNSATISFIABLE
-
g.45.3.graphml.cnf
s UNSATISFIABLE
-
g.45.4.graphml.cnf
s UNSATISFIABLE
-
g.45.5.graphml.cnf
s UNSATISFIABLE
-
g.45.6.graphml.cnf
s UNSATISFIABLE
-
g.45.7.graphml.cnf
s UNSATISFIABLE
-
g.45.8.graphml.cnf
s UNSATISFIABLE
-
g.45.9.graphml.cnf
s UNSATISFIABLE
-
g.46.1.graphml.cnf
s UNSATISFIABLE
-
g.46.10.graphml.cnf
s UNSATISFIABLE
-
g.46.2.graphml.cnf
s UNSATISFIABLE
-
g.46.3.graphml.cnf
s UNSATISFIABLE
-
g.46.4.graphml.cnf
s UNSATISFIABLE
-
g.46.5.graphml.cnf
s UNSATISFIABLE
-
g.46.6.graphml.cnf
s UNSATISFIABLE
-
g.46.7.graphml.cnf
s UNSATISFIABLE
-
g.46.8.graphml.cnf
s UNSATISFIABLE
-
g.46.9.graphml.cnf
s UNSATISFIABLE
-
g.47.1.graphml.cnf
s UNSATISFIABLE
-
g.47.10.graphml.cnf
s UNSATISFIABLE
-
g.47.2.graphml.cnf
s UNSATISFIABLE
-
g.47.3.graphml.cnf
s UNSATISFIABLE
-
g.47.4.graphml.cnf
s UNSATISFIABLE
-
g.47.5.graphml.cnf
s UNSATISFIABLE
-
g.47.6.graphml.cnf
s UNSATISFIABLE
-
g.47.7.graphml.cnf
s UNSATISFIABLE
-
g.47.8.graphml.cnf
s UNSATISFIABLE
-
g.47.9.graphml.cnf
s UNSATISFIABLE
-
g.48.1.graphml.cnf
s UNSATISFIABLE
-
g.48.10.graphml.cnf
s UNSATISFIABLE
-
g.48.2.graphml.cnf
s UNSATISFIABLE
-
g.48.3.graphml.cnf
s UNSATISFIABLE
-
g.48.4.graphml.cnf
s UNSATISFIABLE
-
g.48.5.graphml.cnf
s UNSATISFIABLE
-
g.48.6.graphml.cnf
s UNSATISFIABLE
-
g.48.7.graphml.cnf
s UNSATISFIABLE
-
g.48.8.graphml.cnf
s UNSATISFIABLE
-
g.48.9.graphml.cnf
s UNSATISFIABLE
-
g.49.1.graphml.cnf
s UNSATISFIABLE
-
g.49.10.graphml.cnf
s UNSATISFIABLE
-
g.49.2.graphml.cnf
s UNSATISFIABLE
-
g.49.3.graphml.cnf
s UNSATISFIABLE
-
g.49.4.graphml.cnf
s UNSATISFIABLE
-
g.49.5.graphml.cnf
s UNSATISFIABLE
-
g.49.6.graphml.cnf
s UNSATISFIABLE
-
g.49.7.graphml.cnf
s UNSATISFIABLE
-
g.49.8.graphml.cnf
s UNSATISFIABLE
-
g.49.9.graphml.cnf
s UNSATISFIABLE
-
g.50.1.graphml.cnf
s UNSATISFIABLE
-
g.50.10.graphml.cnf
s UNSATISFIABLE
-
g.50.2.graphml.cnf
s UNSATISFIABLE
-
g.50.3.graphml.cnf
s UNSATISFIABLE
-
g.50.4.graphml.cnf
s UNSATISFIABLE
-
g.50.5.graphml.cnf
s UNSATISFIABLE
-
g.50.6.graphml.cnf
s UNSATISFIABLE
-
g.50.7.graphml.cnf
s UNSATISFIABLE
-
g.50.8.graphml.cnf
s UNSATISFIABLE
-
g.50.9.graphml.cnf
s UNSATISFIABLE
-
g.51.1.graphml.cnf
s UNSATISFIABLE
-
g.51.10.graphml.cnf
s UNSATISFIABLE
-
g.51.2.graphml.cnf
s UNSATISFIABLE
-
g.51.3.graphml.cnf
s UNSATISFIABLE
-
g.51.4.graphml.cnf
s UNSATISFIABLE
-
g.51.5.graphml.cnf
s UNSATISFIABLE
-
g.51.6.graphml.cnf
s UNSATISFIABLE
-
g.51.7.graphml.cnf
s UNSATISFIABLE
-
g.51.8.graphml.cnf
s UNSATISFIABLE
-
g.51.9.graphml.cnf
s UNSATISFIABLE
-
g.52.1.graphml.cnf
s UNSATISFIABLE
-
g.52.10.graphml.cnf
s UNSATISFIABLE
-
g.52.2.graphml.cnf
s UNSATISFIABLE
-
g.52.3.graphml.cnf
s UNSATISFIABLE
-
g.52.4.graphml.cnf
s UNSATISFIABLE
-
g.52.5.graphml.cnf
s UNSATISFIABLE
-
g.52.6.graphml.cnf
s UNSATISFIABLE
-
g.52.7.graphml.cnf
s UNSATISFIABLE
-
g.52.8.graphml.cnf
s UNSATISFIABLE
-
g.52.9.graphml.cnf
s UNSATISFIABLE
-
g.53.1.graphml.cnf
s UNSATISFIABLE
-
g.53.10.graphml.cnf
s UNSATISFIABLE
-
g.53.2.graphml.cnf
s UNSATISFIABLE
-
g.53.3.graphml.cnf
s UNSATISFIABLE
-
g.53.4.graphml.cnf
s UNSATISFIABLE
-
g.53.5.graphml.cnf
s UNSATISFIABLE
-
g.53.6.graphml.cnf
s UNSATISFIABLE
-
g.53.7.graphml.cnf
s UNSATISFIABLE
-
g.53.8.graphml.cnf
s UNSATISFIABLE
-
g.53.9.graphml.cnf
s UNSATISFIABLE
-
g.54.1.graphml.cnf
s UNSATISFIABLE
-
g.54.10.graphml.cnf
s UNSATISFIABLE
-
g.54.2.graphml.cnf
s UNSATISFIABLE
-
g.54.3.graphml.cnf
s UNSATISFIABLE
-
g.54.4.graphml.cnf
s UNSATISFIABLE
-
g.54.5.graphml.cnf
s UNSATISFIABLE
-
g.54.6.graphml.cnf
s UNSATISFIABLE
-
g.54.7.graphml.cnf
s UNSATISFIABLE
-
g.54.8.graphml.cnf
s UNSATISFIABLE
-
g.54.9.graphml.cnf
s UNSATISFIABLE
-
g.55.1.graphml.cnf
s UNSATISFIABLE
-
g.55.10.graphml.cnf
s UNSATISFIABLE
-
g.55.2.graphml.cnf
s UNSATISFIABLE
-
g.55.3.graphml.cnf
s UNSATISFIABLE
-
g.55.4.graphml.cnf
s UNSATISFIABLE
-
g.55.5.graphml.cnf
s UNSATISFIABLE
-
g.55.6.graphml.cnf
s UNSATISFIABLE
-
g.55.7.graphml.cnf
s UNSATISFIABLE
-
g.55.8.graphml.cnf
s UNSATISFIABLE
-
g.55.9.graphml.cnf
s UNSATISFIABLE
-
g.56.1.graphml.cnf
s UNSATISFIABLE
-
g.56.10.graphml.cnf
s UNSATISFIABLE
-
g.56.2.graphml.cnf
s UNSATISFIABLE
-
g.56.3.graphml.cnf
s UNSATISFIABLE
-
g.56.4.graphml.cnf
s UNSATISFIABLE
-
g.56.5.graphml.cnf
s UNSATISFIABLE
-
g.56.6.graphml.cnf
s UNSATISFIABLE
-
g.56.7.graphml.cnf
s UNSATISFIABLE
-
g.56.8.graphml.cnf
s UNSATISFIABLE
-
g.56.9.graphml.cnf
s UNSATISFIABLE
-
g.57.1.graphml.cnf
s UNSATISFIABLE
-
g.57.10.graphml.cnf
s UNSATISFIABLE
-
g.57.2.graphml.cnf
s UNSATISFIABLE
-
g.57.3.graphml.cnf
s UNSATISFIABLE
-
g.57.4.graphml.cnf
s UNSATISFIABLE
-
g.57.5.graphml.cnf
s UNSATISFIABLE
-
g.57.6.graphml.cnf
s UNSATISFIABLE
-
g.57.7.graphml.cnf
s UNSATISFIABLE
-
g.57.8.graphml.cnf
s UNSATISFIABLE
-
g.57.9.graphml.cnf
s UNSATISFIABLE
-
g.58.1.graphml.cnf
s UNSATISFIABLE
-
g.58.10.graphml.cnf
s UNSATISFIABLE
-
g.58.2.graphml.cnf
s UNSATISFIABLE
-
g.58.3.graphml.cnf
s UNSATISFIABLE
-
g.58.4.graphml.cnf
s UNSATISFIABLE
-
g.58.5.graphml.cnf
s UNSATISFIABLE
-
g.58.6.graphml.cnf
s UNSATISFIABLE
-
g.58.7.graphml.cnf
s UNSATISFIABLE
-
g.58.8.graphml.cnf
s UNSATISFIABLE
-
g.58.9.graphml.cnf
s UNSATISFIABLE
-
g.59.1.graphml.cnf
s UNSATISFIABLE
-
g.59.10.graphml.cnf
s UNSATISFIABLE
-
g.59.2.graphml.cnf
s UNSATISFIABLE
-
g.59.3.graphml.cnf
s UNSATISFIABLE
-
g.59.4.graphml.cnf
s UNSATISFIABLE
-
g.59.5.graphml.cnf
s UNSATISFIABLE
-
g.59.6.graphml.cnf
s UNSATISFIABLE
-
g.59.7.graphml.cnf
s UNSATISFIABLE
-
g.59.8.graphml.cnf
s UNSATISFIABLE
-
g.59.9.graphml.cnf
s UNSATISFIABLE
-
g.60.1.graphml.cnf
s UNSATISFIABLE
-
g.60.10.graphml.cnf
s UNSATISFIABLE
-
g.60.2.graphml.cnf
s UNSATISFIABLE
-
g.60.3.graphml.cnf
s UNSATISFIABLE
-
g.60.4.graphml.cnf
s UNSATISFIABLE
-
g.60.5.graphml.cnf
s UNSATISFIABLE
-
g.60.6.graphml.cnf
s UNSATISFIABLE
-
g.60.7.graphml.cnf
s UNSATISFIABLE
-
g.60.8.graphml.cnf
s UNSATISFIABLE
-
g.60.9.graphml.cnf
s UNSATISFIABLE
-
g.61.1.graphml.cnf
s UNSATISFIABLE
-
g.61.10.graphml.cnf
s UNSATISFIABLE
-
g.61.2.graphml.cnf
s UNSATISFIABLE
-
g.61.3.graphml.cnf
s UNSATISFIABLE
-
g.61.4.graphml.cnf
s UNSATISFIABLE
-
g.61.5.graphml.cnf
s UNSATISFIABLE
-
g.61.6.graphml.cnf
s UNSATISFIABLE
-
g.61.7.graphml.cnf
s UNSATISFIABLE
-
g.61.8.graphml.cnf
s UNSATISFIABLE
-
g.61.9.graphml.cnf
s UNSATISFIABLE
-
g.62.1.graphml.cnf
s UNSATISFIABLE
-
g.62.10.graphml.cnf
s UNSATISFIABLE
-
g.62.2.graphml.cnf
s UNSATISFIABLE
-
g.62.3.graphml.cnf
s UNSATISFIABLE
-
g.62.4.graphml.cnf
s UNSATISFIABLE
-
g.62.5.graphml.cnf
s UNSATISFIABLE
-
g.62.6.graphml.cnf
s UNSATISFIABLE
-
g.62.7.graphml.cnf
s UNSATISFIABLE
-
g.62.8.graphml.cnf
s UNSATISFIABLE
-
g.62.9.graphml.cnf
s UNSATISFIABLE
-
g.63.1.graphml.cnf
s UNSATISFIABLE
-
g.63.10.graphml.cnf
s UNSATISFIABLE
-
g.63.2.graphml.cnf
s UNSATISFIABLE
-
g.63.3.graphml.cnf
s UNSATISFIABLE
-
g.63.4.graphml.cnf
s UNSATISFIABLE
-
g.63.5.graphml.cnf
s UNSATISFIABLE
-
g.63.6.graphml.cnf
s UNSATISFIABLE
-
g.63.7.graphml.cnf
s UNSATISFIABLE
-
g.63.8.graphml.cnf
s UNSATISFIABLE
-
g.63.9.graphml.cnf
s UNSATISFIABLE
-
g.64.1.graphml.cnf
s UNSATISFIABLE
-
g.64.10.graphml.cnf
s UNSATISFIABLE
-
g.64.2.graphml.cnf
s UNSATISFIABLE
-
g.64.3.graphml.cnf
s UNSATISFIABLE
-
g.64.4.graphml.cnf
s UNSATISFIABLE
-
g.64.5.graphml.cnf
s UNSATISFIABLE
-
g.64.6.graphml.cnf
s UNSATISFIABLE
-
g.64.7.graphml.cnf
s UNSATISFIABLE
-
g.64.8.graphml.cnf
s UNSATISFIABLE
-
g.64.9.graphml.cnf
s UNSATISFIABLE
-
g.65.1.graphml.cnf
s UNSATISFIABLE
-
g.65.10.graphml.cnf
s UNSATISFIABLE
-
g.65.2.graphml.cnf
s UNSATISFIABLE
-
g.65.3.graphml.cnf
s UNSATISFIABLE
-
g.65.4.graphml.cnf
s UNSATISFIABLE
-
g.65.5.graphml.cnf
s UNSATISFIABLE
-
g.65.6.graphml.cnf
s UNSATISFIABLE
-
g.65.7.graphml.cnf
s UNSATISFIABLE
-
g.65.8.graphml.cnf
s UNSATISFIABLE
-
g.65.9.graphml.cnf
s UNSATISFIABLE
-
g.66.1.graphml.cnf
s UNSATISFIABLE
-
g.66.10.graphml.cnf
s UNSATISFIABLE
-
g.66.2.graphml.cnf
s UNSATISFIABLE
-
g.66.3.graphml.cnf
s UNSATISFIABLE
-
g.66.4.graphml.cnf
s UNSATISFIABLE
-
g.66.5.graphml.cnf
s UNSATISFIABLE
-
g.66.6.graphml.cnf
s UNSATISFIABLE
-
g.66.7.graphml.cnf
s UNSATISFIABLE
-
g.66.8.graphml.cnf
s UNSATISFIABLE
-
g.66.9.graphml.cnf
s UNSATISFIABLE
-
g.67.1.graphml.cnf
s UNSATISFIABLE
-
g.67.10.graphml.cnf
s UNSATISFIABLE
-
g.67.2.graphml.cnf
s UNSATISFIABLE
-
g.67.3.graphml.cnf
s UNSATISFIABLE
-
g.67.4.graphml.cnf
s UNSATISFIABLE
-
g.67.5.graphml.cnf
s UNSATISFIABLE
-
g.67.6.graphml.cnf
s UNSATISFIABLE
-
g.67.7.graphml.cnf
s UNSATISFIABLE
-
g.67.8.graphml.cnf
s UNSATISFIABLE
-
g.67.9.graphml.cnf
s UNSATISFIABLE
-
g.68.1.graphml.cnf
s UNSATISFIABLE
-
g.68.10.graphml.cnf
s UNSATISFIABLE
-
g.68.2.graphml.cnf
s UNSATISFIABLE
-
g.68.3.graphml.cnf
s UNSATISFIABLE
-
g.68.4.graphml.cnf
s UNSATISFIABLE
-
g.68.5.graphml.cnf
s UNSATISFIABLE
-
g.68.6.graphml.cnf
s UNSATISFIABLE
-
g.68.7.graphml.cnf
s UNSATISFIABLE
-
g.68.8.graphml.cnf
s UNSATISFIABLE
-
g.68.9.graphml.cnf
s UNSATISFIABLE
-
g.69.1.graphml.cnf
s UNSATISFIABLE
-
g.69.10.graphml.cnf
s UNSATISFIABLE
-
g.69.2.graphml.cnf
s UNSATISFIABLE
-
g.69.3.graphml.cnf
s UNSATISFIABLE
-
g.69.4.graphml.cnf
s UNSATISFIABLE
-
g.69.5.graphml.cnf
s UNSATISFIABLE
-
g.69.6.graphml.cnf
s UNSATISFIABLE
-
g.69.7.graphml.cnf
s UNSATISFIABLE
-
g.69.8.graphml.cnf
s UNSATISFIABLE
-
g.69.9.graphml.cnf
s UNSATISFIABLE
-
g.70.1.graphml.cnf
s UNSATISFIABLE
-
g.70.10.graphml.cnf
s UNSATISFIABLE
-
g.70.2.graphml.cnf
s UNSATISFIABLE
-
g.70.3.graphml.cnf
s UNSATISFIABLE
-
g.70.4.graphml.cnf
s UNSATISFIABLE
-
g.70.5.graphml.cnf
s UNSATISFIABLE
-
g.70.6.graphml.cnf
s UNSATISFIABLE
-
g.70.7.graphml.cnf
s UNSATISFIABLE
-
g.70.8.graphml.cnf
s UNSATISFIABLE
-
g.70.9.graphml.cnf
s UNSATISFIABLE
-
g.71.1.graphml.cnf
s UNSATISFIABLE
-
g.71.10.graphml.cnf
s UNSATISFIABLE
-
g.71.2.graphml.cnf
s UNSATISFIABLE
-
g.71.3.graphml.cnf
s UNSATISFIABLE
-
g.71.4.graphml.cnf
s UNSATISFIABLE
-
g.71.5.graphml.cnf
s UNSATISFIABLE
-
g.71.6.graphml.cnf
s UNSATISFIABLE
-
g.71.7.graphml.cnf
s UNSATISFIABLE
-
g.71.8.graphml.cnf
s UNSATISFIABLE
-
g.71.9.graphml.cnf
s UNSATISFIABLE
-
g.72.1.graphml.cnf
s UNSATISFIABLE
-
g.72.10.graphml.cnf
s UNSATISFIABLE
-
g.72.2.graphml.cnf
s UNSATISFIABLE
-
g.72.3.graphml.cnf
s UNSATISFIABLE
-
g.72.4.graphml.cnf
s UNSATISFIABLE
-
g.72.5.graphml.cnf
s UNSATISFIABLE
-
g.72.6.graphml.cnf
s UNSATISFIABLE
-
g.72.7.graphml.cnf
s UNSATISFIABLE
-
g.72.8.graphml.cnf
s UNSATISFIABLE
-
g.72.9.graphml.cnf
s UNSATISFIABLE
-
g.73.1.graphml.cnf
s UNSATISFIABLE
-
g.73.10.graphml.cnf
s UNSATISFIABLE
-
g.73.2.graphml.cnf
s UNSATISFIABLE
-
g.73.3.graphml.cnf
s UNSATISFIABLE
-
g.73.4.graphml.cnf
s UNSATISFIABLE
-
g.73.5.graphml.cnf
s UNSATISFIABLE
-
g.73.6.graphml.cnf
s UNSATISFIABLE
-
g.73.7.graphml.cnf
s UNSATISFIABLE
-
g.73.8.graphml.cnf
s UNSATISFIABLE
-
g.73.9.graphml.cnf
s UNSATISFIABLE
-
g.74.1.graphml.cnf
s UNSATISFIABLE
-
g.74.10.graphml.cnf
s UNSATISFIABLE
-
g.74.2.graphml.cnf
s UNSATISFIABLE
-
g.74.3.graphml.cnf
s UNSATISFIABLE
-
g.74.4.graphml.cnf
s UNSATISFIABLE
-
g.74.5.graphml.cnf
s UNSATISFIABLE
-
g.74.6.graphml.cnf
s UNSATISFIABLE
-
g.74.7.graphml.cnf
s UNSATISFIABLE
-
g.74.8.graphml.cnf
s UNSATISFIABLE
-
g.74.9.graphml.cnf
s UNSATISFIABLE
-
g.75.1.graphml.cnf
s UNSATISFIABLE
-
g.75.10.graphml.cnf
s UNSATISFIABLE
-
g.75.2.graphml.cnf
s UNSATISFIABLE
-
g.75.3.graphml.cnf
s UNSATISFIABLE
-
g.75.4.graphml.cnf
s UNSATISFIABLE
-
g.75.5.graphml.cnf
s UNSATISFIABLE
-
g.75.6.graphml.cnf
s UNSATISFIABLE
-
g.75.7.graphml.cnf
s UNSATISFIABLE
-
g.75.8.graphml.cnf
s UNSATISFIABLE
-
g.75.9.graphml.cnf
s UNSATISFIABLE
-
g.76.1.graphml.cnf
s UNSATISFIABLE
-
g.76.10.graphml.cnf
s UNSATISFIABLE
-
g.76.2.graphml.cnf
s UNSATISFIABLE
-
g.76.3.graphml.cnf
s UNSATISFIABLE
-
g.76.4.graphml.cnf
s UNSATISFIABLE
-
g.76.5.graphml.cnf
s UNSATISFIABLE
-
g.76.6.graphml.cnf
s UNSATISFIABLE
-
g.76.7.graphml.cnf
s UNSATISFIABLE
-
g.76.8.graphml.cnf
s UNSATISFIABLE
-
g.76.9.graphml.cnf
s UNSATISFIABLE
-
g.77.1.graphml.cnf
s UNSATISFIABLE
-
g.77.10.graphml.cnf
s UNSATISFIABLE
-
g.77.2.graphml.cnf
s UNSATISFIABLE
-
g.77.3.graphml.cnf
s UNSATISFIABLE
-
g.77.4.graphml.cnf
s UNSATISFIABLE
-
g.77.5.graphml.cnf
s UNSATISFIABLE
-
g.77.6.graphml.cnf
s UNSATISFIABLE
-
g.77.7.graphml.cnf
s UNSATISFIABLE
-
g.77.8.graphml.cnf
s UNSATISFIABLE
-
g.77.9.graphml.cnf
s UNSATISFIABLE
-
g.78.1.graphml.cnf
s UNSATISFIABLE
-
g.78.10.graphml.cnf
s UNSATISFIABLE
-
g.78.2.graphml.cnf
s UNSATISFIABLE
-
g.78.3.graphml.cnf
s UNSATISFIABLE
-
g.78.4.graphml.cnf
s UNSATISFIABLE
-
g.78.5.graphml.cnf
s UNSATISFIABLE
-
g.78.6.graphml.cnf
s UNSATISFIABLE
-
g.78.7.graphml.cnf
s UNSATISFIABLE
-
g.78.8.graphml.cnf
s UNSATISFIABLE
-
g.78.9.graphml.cnf
s UNSATISFIABLE
-
g.79.1.graphml.cnf
s UNSATISFIABLE
-
g.79.10.graphml.cnf
s UNSATISFIABLE
-
g.79.2.graphml.cnf
s UNSATISFIABLE
-
g.79.3.graphml.cnf
s UNSATISFIABLE
-
g.79.4.graphml.cnf
s UNSATISFIABLE
-
g.79.5.graphml.cnf
s UNSATISFIABLE
-
g.79.6.graphml.cnf
s UNSATISFIABLE
-
g.79.7.graphml.cnf
s UNSATISFIABLE
-
g.79.8.graphml.cnf
s UNSATISFIABLE
-
g.79.9.graphml.cnf
s UNSATISFIABLE
-
g.80.1.graphml.cnf
s UNSATISFIABLE
-
g.80.10.graphml.cnf
s UNSATISFIABLE
-
g.80.2.graphml.cnf
s UNSATISFIABLE
-
g.80.3.graphml.cnf
s UNSATISFIABLE
-
g.80.4.graphml.cnf
s UNSATISFIABLE
-
g.80.5.graphml.cnf
s UNSATISFIABLE
-
g.80.6.graphml.cnf
s UNSATISFIABLE
-
g.80.7.graphml.cnf
s UNSATISFIABLE
-
g.80.8.graphml.cnf
s UNSATISFIABLE
-
g.80.9.graphml.cnf
s UNSATISFIABLE
-
g.81.1.graphml.cnf
s UNSATISFIABLE
-
g.81.10.graphml.cnf
s UNSATISFIABLE
-
g.81.2.graphml.cnf
s UNSATISFIABLE
-
g.81.3.graphml.cnf
s UNSATISFIABLE
-
g.81.4.graphml.cnf
s UNSATISFIABLE
-
g.81.5.graphml.cnf
s UNSATISFIABLE
-
g.81.6.graphml.cnf
s UNSATISFIABLE
-
g.81.7.graphml.cnf
s UNSATISFIABLE
-
g.81.8.graphml.cnf
s UNSATISFIABLE
-
g.81.9.graphml.cnf
s UNSATISFIABLE
-
g.82.1.graphml.cnf
s UNSATISFIABLE
-
g.82.10.graphml.cnf
s UNSATISFIABLE
-
g.82.2.graphml.cnf
s UNSATISFIABLE
-
g.82.3.graphml.cnf
s UNSATISFIABLE
-
g.82.4.graphml.cnf
s UNSATISFIABLE
-
g.82.5.graphml.cnf
s UNSATISFIABLE
-
g.82.6.graphml.cnf
s UNSATISFIABLE
-
g.82.7.graphml.cnf
s UNSATISFIABLE
-
g.82.8.graphml.cnf
s UNSATISFIABLE
-
g.82.9.graphml.cnf
s UNSATISFIABLE
-
g.83.1.graphml.cnf
s UNSATISFIABLE
-
g.83.10.graphml.cnf
s UNSATISFIABLE
-
g.83.2.graphml.cnf
s UNSATISFIABLE
-
g.83.3.graphml.cnf
s UNSATISFIABLE
-
g.83.4.graphml.cnf
s UNSATISFIABLE
-
g.83.5.graphml.cnf
s UNSATISFIABLE
-
g.83.6.graphml.cnf
s UNSATISFIABLE
-
g.83.7.graphml.cnf
s UNSATISFIABLE
-
g.83.8.graphml.cnf
s UNSATISFIABLE
-
g.83.9.graphml.cnf
s UNSATISFIABLE
-
g.84.1.graphml.cnf
s UNSATISFIABLE
-
g.84.10.graphml.cnf
s UNSATISFIABLE
-
g.84.2.graphml.cnf
s UNSATISFIABLE
-
g.84.3.graphml.cnf
s UNSATISFIABLE
-
g.84.4.graphml.cnf
s UNSATISFIABLE
-
g.84.5.graphml.cnf
s UNSATISFIABLE
-
g.84.6.graphml.cnf
s UNSATISFIABLE
-
g.84.7.graphml.cnf
s UNSATISFIABLE
-
g.84.8.graphml.cnf
s UNSATISFIABLE
-
g.84.9.graphml.cnf
s UNSATISFIABLE
-
g.85.1.graphml.cnf
s UNSATISFIABLE
-
g.85.10.graphml.cnf
s UNSATISFIABLE
-
g.85.2.graphml.cnf
s UNSATISFIABLE
-
g.85.3.graphml.cnf
s UNSATISFIABLE
-
g.85.4.graphml.cnf
s UNSATISFIABLE
-
g.85.5.graphml.cnf
s UNSATISFIABLE
-
g.85.6.graphml.cnf
s UNSATISFIABLE
-
g.85.7.graphml.cnf
s UNSATISFIABLE
-
g.85.8.graphml.cnf
s UNSATISFIABLE
-
g.85.9.graphml.cnf
s UNSATISFIABLE
-
g.86.1.graphml.cnf
s UNSATISFIABLE
-
g.86.10.graphml.cnf
s UNSATISFIABLE
-
g.86.2.graphml.cnf
s UNSATISFIABLE
-
g.86.3.graphml.cnf
s UNSATISFIABLE
-
g.86.4.graphml.cnf
s UNSATISFIABLE
-
g.86.5.graphml.cnf
s UNSATISFIABLE
-
g.86.6.graphml.cnf
s UNSATISFIABLE
-
g.86.7.graphml.cnf
s UNSATISFIABLE
-
g.86.8.graphml.cnf
s UNSATISFIABLE
-
g.86.9.graphml.cnf
s UNSATISFIABLE
-
g.87.1.graphml.cnf
s UNSATISFIABLE
-
g.87.10.graphml.cnf
s UNSATISFIABLE
-
g.87.2.graphml.cnf
s UNSATISFIABLE
-
g.87.3.graphml.cnf
s UNSATISFIABLE
-
g.87.4.graphml.cnf
s UNSATISFIABLE
-
g.87.5.graphml.cnf
s UNSATISFIABLE
-
g.87.6.graphml.cnf
s UNSATISFIABLE
-
g.87.7.graphml.cnf
s UNSATISFIABLE
-
g.87.8.graphml.cnf
s UNSATISFIABLE
-
g.87.9.graphml.cnf
s UNSATISFIABLE
-
g.88.1.graphml.cnf
s UNSATISFIABLE
-
g.88.10.graphml.cnf
s UNSATISFIABLE
-
g.88.2.graphml.cnf
s UNSATISFIABLE
-
g.88.3.graphml.cnf
s UNSATISFIABLE
-
g.88.4.graphml.cnf
s UNSATISFIABLE
-
g.88.5.graphml.cnf
s UNSATISFIABLE
-
g.88.6.graphml.cnf
s UNSATISFIABLE
-
g.88.7.graphml.cnf
s UNSATISFIABLE
-
g.88.8.graphml.cnf
s UNSATISFIABLE
-
g.88.9.graphml.cnf
s UNSATISFIABLE
-
g.89.1.graphml.cnf
s UNSATISFIABLE
-
g.89.10.graphml.cnf
s UNSATISFIABLE
-
g.89.2.graphml.cnf
s UNSATISFIABLE
-
g.89.3.graphml.cnf
s UNSATISFIABLE
-
g.89.4.graphml.cnf
s UNSATISFIABLE
-
g.89.5.graphml.cnf
s UNSATISFIABLE
-
g.89.6.graphml.cnf
s UNSATISFIABLE
-
g.89.7.graphml.cnf
s UNSATISFIABLE
-
g.89.8.graphml.cnf
s UNSATISFIABLE
-
g.89.9.graphml.cnf
s UNSATISFIABLE
-
g.90.1.graphml.cnf
s UNSATISFIABLE
-
g.90.10.graphml.cnf
s UNSATISFIABLE
-
g.90.2.graphml.cnf
s UNSATISFIABLE
-
g.90.3.graphml.cnf
s UNSATISFIABLE
-
g.90.4.graphml.cnf
s UNSATISFIABLE
-
g.90.5.graphml.cnf
s UNSATISFIABLE
-
g.90.6.graphml.cnf
s UNSATISFIABLE
-
g.90.7.graphml.cnf
s UNSATISFIABLE
-
g.90.8.graphml.cnf
s UNSATISFIABLE
-
g.90.9.graphml.cnf
s UNSATISFIABLE
-
g.91.1.graphml.cnf
s UNSATISFIABLE
-
g.91.10.graphml.cnf
s UNSATISFIABLE
-
g.91.2.graphml.cnf
s UNSATISFIABLE
-
g.91.3.graphml.cnf
s UNSATISFIABLE
-
g.91.4.graphml.cnf
s UNSATISFIABLE
-
g.91.5.graphml.cnf
s UNSATISFIABLE
-
g.91.6.graphml.cnf
s UNSATISFIABLE
-
g.91.7.graphml.cnf
s UNSATISFIABLE
-
g.91.8.graphml.cnf
s UNSATISFIABLE
-
g.91.9.graphml.cnf
s UNSATISFIABLE
-
g.92.1.graphml.cnf
s UNSATISFIABLE
-
g.92.10.graphml.cnf
s UNSATISFIABLE
-
g.92.2.graphml.cnf
s UNSATISFIABLE
-
g.92.3.graphml.cnf
s UNSATISFIABLE
-
g.92.4.graphml.cnf
s UNSATISFIABLE
-
g.92.5.graphml.cnf
s UNSATISFIABLE
-
g.92.6.graphml.cnf
s UNSATISFIABLE
-
g.92.7.graphml.cnf
s UNSATISFIABLE
-
g.92.8.graphml.cnf
s UNSATISFIABLE
-
g.92.9.graphml.cnf
s UNSATISFIABLE
-
g.93.1.graphml.cnf
s UNSATISFIABLE
-
g.93.10.graphml.cnf
s UNSATISFIABLE
-
g.93.2.graphml.cnf
s UNSATISFIABLE
-
g.93.3.graphml.cnf
s UNSATISFIABLE
-
g.93.4.graphml.cnf
s UNSATISFIABLE
-
g.93.5.graphml.cnf
s UNSATISFIABLE
-
g.93.6.graphml.cnf
s UNSATISFIABLE
-
g.93.7.graphml.cnf
s UNSATISFIABLE
-
g.93.8.graphml.cnf
s UNSATISFIABLE
-
g.93.9.graphml.cnf
s UNSATISFIABLE
-
g.94.1.graphml.cnf
s UNSATISFIABLE
-
g.94.10.graphml.cnf
s UNSATISFIABLE
-
g.94.2.graphml.cnf
s UNSATISFIABLE
-
g.94.3.graphml.cnf
s UNSATISFIABLE
-
g.94.4.graphml.cnf
s UNSATISFIABLE
-
g.94.5.graphml.cnf
s UNSATISFIABLE
-
g.94.6.graphml.cnf
s UNSATISFIABLE
-
g.94.7.graphml.cnf
s UNSATISFIABLE
-
g.94.8.graphml.cnf
s UNSATISFIABLE
-
g.94.9.graphml.cnf
s UNSATISFIABLE
-
g.95.1.graphml.cnf
s UNSATISFIABLE
-
g.95.10.graphml.cnf
s UNSATISFIABLE
-
g.95.2.graphml.cnf
s UNSATISFIABLE
-
g.95.3.graphml.cnf
s UNSATISFIABLE
-
g.95.4.graphml.cnf
s UNSATISFIABLE
-
g.95.5.graphml.cnf
s UNSATISFIABLE
-
g.95.6.graphml.cnf
s UNSATISFIABLE
-
g.95.7.graphml.cnf
s UNSATISFIABLE
-
g.95.8.graphml.cnf
s UNSATISFIABLE
-
g.95.9.graphml.cnf
s UNSATISFIABLE
-
g.96.1.graphml.cnf
s UNSATISFIABLE
-
g.96.10.graphml.cnf
s UNSATISFIABLE
-
g.96.2.graphml.cnf
s UNSATISFIABLE
-
g.96.3.graphml.cnf
s UNSATISFIABLE
-
g.96.4.graphml.cnf
s UNSATISFIABLE
-
g.96.5.graphml.cnf
s UNSATISFIABLE
-
g.96.6.graphml.cnf
s UNSATISFIABLE
-
g.96.7.graphml.cnf
s UNSATISFIABLE
-
g.96.8.graphml.cnf
s UNSATISFIABLE
-
g.96.9.graphml.cnf
s UNSATISFIABLE
-
g.97.1.graphml.cnf
s UNSATISFIABLE
-
g.97.10.graphml.cnf
s UNSATISFIABLE
-
g.97.2.graphml.cnf
s UNSATISFIABLE
-
g.97.3.graphml.cnf
s UNSATISFIABLE
-
g.97.4.graphml.cnf
s UNSATISFIABLE
-
g.97.5.graphml.cnf
s UNSATISFIABLE
-
g.97.6.graphml.cnf
s UNSATISFIABLE
-
g.97.7.graphml.cnf
s UNSATISFIABLE
-
g.97.8.graphml.cnf
s UNSATISFIABLE
-
g.97.9.graphml.cnf
s UNSATISFIABLE
-
g.98.1.graphml.cnf
s UNSATISFIABLE
-
g.98.10.graphml.cnf
s UNSATISFIABLE
-
g.98.2.graphml.cnf
s UNSATISFIABLE
-
g.98.3.graphml.cnf
s UNSATISFIABLE
-
g.98.4.graphml.cnf
s UNSATISFIABLE
-
g.98.5.graphml.cnf
s UNSATISFIABLE
-
g.98.6.graphml.cnf
s UNSATISFIABLE
-
g.98.7.graphml.cnf
s UNSATISFIABLE
-
g.98.8.graphml.cnf
s UNSATISFIABLE
-
g.98.9.graphml.cnf
s UNSATISFIABLE
-
g.99.1.graphml.cnf
s UNSATISFIABLE
-
g.99.10.graphml.cnf
s UNSATISFIABLE
-
g.99.2.graphml.cnf
s UNSATISFIABLE
-
g.99.3.graphml.cnf
s UNSATISFIABLE
-
g.99.4.graphml.cnf
s UNSATISFIABLE
-
g.99.5.graphml.cnf
s UNSATISFIABLE
-
g.99.6.graphml.cnf
s UNSATISFIABLE
-
g.99.7.graphml.cnf
s UNSATISFIABLE
-
g.99.8.graphml.cnf
s UNSATISFIABLE
-
g.99.9.graphml.cnf
s UNSATISFIABLE
-
